p cnf 264 312
-20 -8 37 38 0
-20 -8 37 -38 0
-20 -8 -37 39 0
-20 -8 -37 -39 0
-5 -12 40 41 0
-5 -12 40 -41 0
-5 -12 -40 42 0
-5 -12 -40 -42 0
14 -6 43 44 0
14 -6 43 -44 0
14 -6 -43 45 0
14 -6 -43 -45 0
-29 21 46 47 0
-29 21 46 -47 0
-29 21 -46 48 0
-29 21 -46 -48 0
-10 -15 -19 49 0
-10 -15 -19 -49 0
-22 35 50 51 0
-22 35 50 -51 0
-22 35 -50 52 0
-22 35 -50 -52 0
-4 19 53 54 0
-4 19 53 -54 0
-4 19 -53 55 0
-4 19 -53 -55 0
7 -27 56 57 0
7 -27 56 -57 0
7 -27 -56 58 0
7 -27 -56 -58 0
16 -23 59 60 0
16 -23 59 -60 0
16 -23 -59 61 0
16 -23 -59 -61 0
10 -18 62 63 0
10 -18 62 -63 0
10 -18 -62 64 0
10 -18 -62 -64 0
14 -27 65 66 0
14 -27 65 -66 0
14 -27 -65 67 0
14 -27 -65 -67 0
-36 10 68 69 0
-36 10 68 -69 0
-36 10 -68 70 0
-36 10 -68 -70 0
30 15 71 72 0
30 15 71 -72 0
30 15 -71 73 0
30 15 -71 -73 0
-30 18 8 74 0
-30 18 8 -74 0
3 -29 75 76 0
3 -29 75 -76 0
3 -29 -75 77 0
3 -29 -75 -77 0
-6 -31 78 79 0
-6 -31 78 -79 0
-6 -31 -78 80 0
-6 -31 -78 -80 0
-5 11 81 82 0
-5 11 81 -82 0
-5 11 -81 83 0
-5 11 -81 -83 0
-2 13 84 85 0
-2 13 84 -85 0
-2 13 -84 86 0
-2 13 -84 -86 0
-28 1 87 88 0
-28 1 87 -88 0
-28 1 -87 89 0
-28 1 -87 -89 0
-25 -1 32 90 0
-25 -1 32 -90 0
3 -9 91 92 0
3 -9 91 -92 0
3 -9 -91 93 0
3 -9 -91 -93 0
25 21 94 95 0
25 21 94 -95 0
25 21 -94 96 0
25 21 -94 -96 0
-32 -12 97 98 0
-32 -12 97 -98 0
-32 -12 -97 99 0
-32 -12 -97 -99 0
-27 3 100 101 0
-27 3 100 -101 0
-27 3 -100 102 0
-27 3 -100 -102 0
-2 -17 103 104 0
-2 -17 103 -104 0
-2 -17 -103 105 0
-2 -17 -103 -105 0
34 16 106 107 0
34 16 106 -107 0
34 16 -106 108 0
34 16 -106 -108 0
13 -22 109 110 0
13 -22 109 -110 0
13 -22 -109 111 0
13 -22 -109 -111 0
-31 -9 112 113 0
-31 -9 112 -113 0
-31 -9 -112 114 0
-31 -9 -112 -114 0
-31 25 115 116 0
-31 25 115 -116 0
-31 25 -115 117 0
-31 25 -115 -117 0
34 -23 118 119 0
34 -23 118 -119 0
34 -23 -118 120 0
34 -23 -118 -120 0
-36 1 121 122 0
-36 1 121 -122 0
-36 1 -121 123 0
-36 1 -121 -123 0
-20 34 124 125 0
-20 34 124 -125 0
-20 34 -124 126 0
-20 34 -124 -126 0
-28 33 127 128 0
-28 33 127 -128 0
-28 33 -127 129 0
-28 33 -127 -129 0
24 9 22 130 0
24 9 22 -130 0
16 -8 131 132 0
16 -8 131 -132 0
16 -8 -131 133 0
16 -8 -131 -133 0
-12 19 134 135 0
-12 19 134 -135 0
-12 19 -134 136 0
-12 19 -134 -136 0
25 -27 137 138 0
25 -27 137 -138 0
25 -27 -137 139 0
25 -27 -137 -139 0
10 -2 140 141 0
10 -2 140 -141 0
10 -2 -140 142 0
10 -2 -140 -142 0
20 -14 17 143 0
20 -14 17 -143 0
19 -5 144 145 0
19 -5 144 -145 0
19 -5 -144 146 0
19 -5 -144 -146 0
11 -4 147 148 0
11 -4 147 -148 0
11 -4 -147 149 0
11 -4 -147 -149 0
-32 34 150 151 0
-32 34 150 -151 0
-32 34 -150 152 0
-32 34 -150 -152 0
10 13 153 154 0
10 13 153 -154 0
10 13 -153 155 0
10 13 -153 -155 0
-24 -23 156 157 0
-24 -23 156 -157 0
-24 -23 -156 158 0
-24 -23 -156 -158 0
28 27 -34 159 0
28 27 -34 -159 0
-17 -22 160 161 0
-17 -22 160 -161 0
-17 -22 -160 162 0
-17 -22 -160 -162 0
-2 -26 163 164 0
-2 -26 163 -164 0
-2 -26 -163 165 0
-2 -26 -163 -165 0
-26 1 166 167 0
-26 1 166 -167 0
-26 1 -166 168 0
-26 1 -166 -168 0
35 33 169 170 0
35 33 169 -170 0
35 33 -169 171 0
35 33 -169 -171 0
-24 -20 172 173 0
-24 -20 172 -173 0
-24 -20 -172 174 0
-24 -20 -172 -174 0
-26 35 175 176 0
-26 35 175 -176 0
-26 35 -175 177 0
-26 35 -175 -177 0
29 -11 26 178 0
29 -11 26 -178 0
14 30 179 180 0
14 30 179 -180 0
14 30 -179 181 0
14 30 -179 -181 0
33 -36 182 183 0
33 -36 182 -183 0
33 -36 -182 184 0
33 -36 -182 -184 0
-18 -17 185 186 0
-18 -17 185 -186 0
-18 -17 -185 187 0
-18 -17 -185 -187 0
-8 -24 188 189 0
-8 -24 188 -189 0
-8 -24 -188 190 0
-8 -24 -188 -190 0
-4 -32 191 192 0
-4 -32 191 -192 0
-4 -32 -191 193 0
-4 -32 -191 -193 0
-18 33 194 195 0
-18 33 194 -195 0
-18 33 -194 196 0
-18 33 -194 -196 0
-16 -33 -7 197 0
-16 -33 -7 -197 0
-17 -28 198 199 0
-17 -28 198 -199 0
-17 -28 -198 200 0
-17 -28 -198 -200 0
-35 -3 23 201 0
-35 -3 23 -201 0
11 -32 202 203 0
11 -32 202 -203 0
11 -32 -202 204 0
11 -32 -202 -204 0
-9 14 205 206 0
-9 14 205 -206 0
-9 14 -205 207 0
-9 14 -205 -207 0
7 3 208 209 0
7 3 208 -209 0
7 3 -208 210 0
7 3 -208 -210 0
25 -29 211 212 0
25 -29 211 -212 0
25 -29 -211 213 0
25 -29 -211 -213 0
13 1 214 215 0
13 1 214 -215 0
13 1 -214 216 0
13 1 -214 -216 0
-5 -20 217 218 0
-5 -20 217 -218 0
-5 -20 -217 219 0
-5 -20 -217 -219 0
-22 -18 220 221 0
-22 -18 220 -221 0
-22 -18 -220 222 0
-22 -18 -220 -222 0
7 30 223 224 0
7 30 223 -224 0
7 30 -223 225 0
7 30 -223 -225 0
-26 -36 226 227 0
-26 -36 226 -227 0
-26 -36 -226 228 0
-26 -36 -226 -228 0
-29 -6 229 230 0
-29 -6 229 -230 0
-29 -6 -229 231 0
-29 -6 -229 -231 0
21 7 232 233 0
21 7 232 -233 0
21 7 -232 234 0
21 7 -232 -234 0
-4 16 235 236 0
-4 16 235 -236 0
-4 16 -235 237 0
-4 16 -235 -237 0
15 21 238 239 0
15 21 238 -239 0
15 21 -238 240 0
15 21 -238 -240 0
-31 15 241 242 0
-31 15 241 -242 0
-31 15 -241 243 0
-31 15 -241 -243 0
19 -8 244 245 0
19 -8 244 -245 0
19 -8 -244 246 0
19 -8 -244 -246 0
4 36 -21 247 0
4 36 -21 -247 0
15 -6 248 249 0
15 -6 248 -249 0
15 -6 -248 250 0
15 -6 -248 -250 0
-13 12 31 251 0
-13 12 31 -251 0
30 -9 252 253 0
30 -9 252 -253 0
30 -9 -252 254 0
30 -9 -252 -254 0
5 2 6 255 0
5 2 6 -255 0
-23 11 256 257 0
-23 11 256 -257 0
-23 11 -256 258 0
-23 11 -256 -258 0
-28 35 259 260 0
-28 35 259 -260 0
-28 35 -259 261 0
-28 35 -259 -261 0
-12 -24 262 263 0
-12 -24 262 -263 0
-12 -24 -262 264 0
-12 -24 -262 -264 0

